84 84
38 42
12 41
74 35
21 40
32 34
64 30
14 1
9 24
16 2
44 6
49 38
75 42
81 2
33 8
68 25
11 13
36 19
34 10
73 20
5 29
24 26
50 32
6 21
41 31
19 11
79 40
7 36
2 37
69 5
60 30
55 22
27 34
8 3
65 36
40 25
66 27
35 18
62 35
70 29
82 23
45 9
80 28
4 12
53 37
57 39
54 4
43 26
58 7
48 11
26 38
23 13
67 19
77 24
31 20
28 14
15 21
10 1
29 33
63 8
30 6
76 9
18 22
46 7
52 39
3 10
22 28
61 33
72 41
39 18
51 17
20 15
17 12
13 16
59 27
25 5
83 16
78 3
56 32
1 17
42 14
47 4
37 23
71 31
84 15
